p cnf 343 1773
-123 -343 0
-123 -342 0
-113 -341 0
-113 -340 0
-112 339 0
-122 -339 0
-112 -338 0
-102 -337 0
-102 336 0
-114 -336 0
-101 -335 0
-101 334 0
-111 335 0
-111 -334 0
-121 -335 0
-121 -334 0
-101 -333 0
-91 -332 0
-91 -331 0
-91 330 0
-103 331 0
-103 -330 0
-115 -331 0
-115 -330 0
-90 329 0
-90 328 0
-100 -329 0
-100 328 0
-110 329 0
-110 -328 0
-120 -329 0
-120 -328 0
-90 -327 0
-80 -326 0
-80 325 0
-80 324 0
-92 -325 0
-92 324 0
-104 325 0
-104 -324 0
-116 -325 0
-116 -324 0
-79 -323 0
-79 -322 0
-79 321 0
-89 323 0
-89 322 0
-89 -321 0
-99 -323 0
-99 322 0
-99 -321 0
-109 323 0
-109 -322 0
-109 -321 0
-119 -323 0
-119 -322 0
-119 -321 0
-79 -320 0
-69 -319 0
-69 -318 0
-69 -317 0
-69 316 0
-81 318 0
-81 317 0
-81 -316 0
-93 -318 0
-93 317 0
-93 -316 0
-105 318 0
-105 -317 0
-105 -316 0
-117 -318 0
-117 -317 0
-117 -316 0
-68 315 0
-68 -314 0
-68 313 0
-78 -315 0
-78 -314 0
-78 313 0
-88 315 0
-88 314 0
-88 -313 0
-98 -315 0
-98 314 0
-98 -313 0
-108 315 0
-108 -314 0
-108 -313 0
-118 -315 0
-118 -314 0
-118 -313 0
-68 -312 0
-58 -311 0
-58 310 0
-58 -309 0
-58 308 0
-70 -310 0
-70 -309 0
-70 308 0
-82 310 0
-82 309 0
-82 -308 0
-94 -310 0
-94 309 0
-94 -308 0
-106 310 0
-106 -309 0
-106 -308 0
-118 -310 0
-118 -309 0
-118 -308 0
-57 -307 0
-57 306 0
-57 305 0
-67 307 0
-67 -306 0
-67 305 0
-77 -307 0
-77 -306 0
-77 305 0
-87 307 0
-87 306 0
-87 -305 0
-97 -307 0
-97 306 0
-97 -305 0
-107 307 0
-107 -306 0
-107 -305 0
-117 -307 0
-117 -306 0
-117 -305 0
-57 -304 0
-47 -303 0
-47 -302 0
-47 301 0
-47 300 0
-59 302 0
-59 -301 0
-59 300 0
-71 -302 0
-71 -301 0
-71 300 0
-83 302 0
-83 301 0
-83 -300 0
-95 -302 0
-95 301 0
-95 -300 0
-107 302 0
-107 -301 0
-107 -300 0
-119 -302 0
-119 -301 0
-119 -300 0
-46 299 0
-46 298 0
-46 297 0
-56 -299 0
-56 298 0
-56 297 0
-66 299 0
-66 -298 0
-66 297 0
-76 -299 0
-76 -298 0
-76 297 0
-86 299 0
-86 298 0
-86 -297 0
-96 -299 0
-96 298 0
-96 -297 0
-106 299 0
-106 -298 0
-106 -297 0
-116 -299 0
-116 -298 0
-116 -297 0
-46 -296 0
-36 -295 0
-36 294 0
-36 293 0
-36 292 0
-48 -294 0
-48 293 0
-48 292 0
-60 294 0
-60 -293 0
-60 292 0
-72 -294 0
-72 -293 0
-72 292 0
-84 294 0
-84 293 0
-84 -292 0
-96 -294 0
-96 293 0
-96 -292 0
-108 294 0
-108 -293 0
-108 -292 0
-120 -294 0
-120 -293 0
-120 -292 0
-35 -291 0
-35 -290 0
-35 -289 0
-35 288 0
-45 291 0
-45 290 0
-45 289 0
-45 -288 0
-55 -291 0
-55 290 0
-55 289 0
-55 -288 0
-65 291 0
-65 -290 0
-65 289 0
-65 -288 0
-75 -291 0
-75 -290 0
-75 289 0
-75 -288 0
-85 291 0
-85 290 0
-85 -289 0
-85 -288 0
-95 -291 0
-95 290 0
-95 -289 0
-95 -288 0
-105 291 0
-105 -290 0
-105 -289 0
-105 -288 0
-115 -291 0
-115 -290 0
-115 -289 0
-115 -288 0
-35 -287 0
-25 -286 0
-25 -285 0
-25 -284 0
-25 -283 0
-25 282 0
-37 285 0
-37 284 0
-37 283 0
-37 -282 0
-49 -285 0
-49 284 0
-49 283 0
-49 -282 0
-61 285 0
-61 -284 0
-61 283 0
-61 -282 0
-73 -285 0
-73 -284 0
-73 283 0
-73 -282 0
-85 285 0
-85 284 0
-85 -283 0
-85 -282 0
-97 -285 0
-97 284 0
-97 -283 0
-97 -282 0
-109 285 0
-109 -284 0
-109 -283 0
-109 -282 0
-121 -285 0
-121 -284 0
-121 -283 0
-121 -282 0
-24 281 0
-24 -280 0
-24 -279 0
-24 278 0
-34 -281 0
-34 -280 0
-34 -279 0
-34 278 0
-44 281 0
-44 280 0
-44 279 0
-44 -278 0
-54 -281 0
-54 280 0
-54 279 0
-54 -278 0
-64 281 0
-64 -280 0
-64 279 0
-64 -278 0
-74 -281 0
-74 -280 0
-74 279 0
-74 -278 0
-84 281 0
-84 280 0
-84 -279 0
-84 -278 0
-94 -281 0
-94 280 0
-94 -279 0
-94 -278 0
-104 281 0
-104 -280 0
-104 -279 0
-104 -278 0
-114 -281 0
-114 -280 0
-114 -279 0
-114 -278 0
-24 -277 0
-14 -276 0
-14 275 0
-14 -274 0
-14 -273 0
-14 272 0
-26 -275 0
-26 -274 0
-26 -273 0
-26 272 0
-38 275 0
-38 274 0
-38 273 0
-38 -272 0
-50 -275 0
-50 274 0
-50 273 0
-50 -272 0
-62 275 0
-62 -274 0
-62 273 0
-62 -272 0
-74 -275 0
-74 -274 0
-74 273 0
-74 -272 0
-86 275 0
-86 274 0
-86 -273 0
-86 -272 0
-98 -275 0
-98 274 0
-98 -273 0
-98 -272 0
-110 275 0
-110 -274 0
-110 -273 0
-110 -272 0
-122 -275 0
-122 -274 0
-122 -273 0
-122 -272 0
-13 -271 0
-13 270 0
-13 -269 0
-13 268 0
-23 271 0
-23 -270 0
-23 -269 0
-23 268 0
-33 -271 0
-33 -270 0
-33 -269 0
-33 268 0
-43 271 0
-43 270 0
-43 269 0
-43 -268 0
-53 -271 0
-53 270 0
-53 269 0
-53 -268 0
-63 271 0
-63 -270 0
-63 269 0
-63 -268 0
-73 -271 0
-73 -270 0
-73 269 0
-73 -268 0
-83 271 0
-83 270 0
-83 -269 0
-83 -268 0
-93 -271 0
-93 270 0
-93 -269 0
-93 -268 0
-103 271 0
-103 -270 0
-103 -269 0
-103 -268 0
-113 -271 0
-113 -270 0
-113 -269 0
-113 -268 0
-13 -267 0
-12 266 0
-12 -265 0
-12 -264 0
-12 263 0
-22 -266 0
-22 -265 0
-22 -264 0
-22 263 0
-32 266 0
-32 265 0
-32 264 0
-32 -263 0
-42 -266 0
-42 265 0
-42 264 0
-42 -263 0
-52 266 0
-52 -265 0
-52 264 0
-52 -263 0
-62 -266 0
-62 -265 0
-62 264 0
-62 -263 0
-72 266 0
-72 265 0
-72 -264 0
-72 -263 0
-82 -266 0
-82 265 0
-82 -264 0
-82 -263 0
-92 266 0
-92 -265 0
-92 -264 0
-92 -263 0
-102 -266 0
-102 -265 0
-102 -264 0
-102 -263 0
-12 262 0
-24 -262 0
-11 -261 0
-11 -260 0
-11 -259 0
-11 258 0
-21 261 0
-21 260 0
-21 259 0
-21 -258 0
-31 -261 0
-31 260 0
-31 259 0
-31 -258 0
-41 261 0
-41 -260 0
-41 259 0
-41 -258 0
-51 -261 0
-51 -260 0
-51 259 0
-51 -258 0
-61 261 0
-61 260 0
-61 -259 0
-61 -258 0
-71 -261 0
-71 260 0
-71 -259 0
-71 -258 0
-81 261 0
-81 -260 0
-81 -259 0
-81 -258 0
-91 -261 0
-91 -260 0
-91 -259 0
-91 -258 0
-11 -257 0
-11 256 0
-23 257 0
-23 -256 0
-35 -257 0
-35 -256 0
-10 255 0
-10 254 0
-10 253 0
-20 -255 0
-20 254 0
-20 253 0
-30 255 0
-30 -254 0
-30 253 0
-40 -255 0
-40 -254 0
-40 253 0
-50 255 0
-50 254 0
-50 -253 0
-60 -255 0
-60 254 0
-60 -253 0
-70 255 0
-70 -254 0
-70 -253 0
-80 -255 0
-80 -254 0
-80 -253 0
-10 252 0
-10 251 0
-22 -252 0
-22 251 0
-34 252 0
-34 -251 0
-46 -252 0
-46 -251 0
-9 -250 0
-9 249 0
-9 248 0
-19 250 0
-19 -249 0
-19 248 0
-29 -250 0
-29 -249 0
-29 248 0
-39 250 0
-39 249 0
-39 -248 0
-49 -250 0
-49 249 0
-49 -248 0
-59 250 0
-59 -249 0
-59 -248 0
-69 -250 0
-69 -249 0
-69 -248 0
-9 -247 0
-9 -246 0
-9 245 0
-21 247 0
-21 246 0
-21 -245 0
-33 -247 0
-33 246 0
-33 -245 0
-45 247 0
-45 -246 0
-45 -245 0
-57 -247 0
-57 -246 0
-57 -245 0
-8 244 0
-8 -243 0
-8 242 0
-18 -244 0
-18 -243 0
-18 242 0
-28 244 0
-28 243 0
-28 -242 0
-38 -244 0
-38 243 0
-38 -242 0
-48 244 0
-48 -243 0
-48 -242 0
-58 -244 0
-58 -243 0
-58 -242 0
-8 241 0
-8 -240 0
-8 239 0
-20 -241 0
-20 -240 0
-20 239 0
-32 241 0
-32 240 0
-32 -239 0
-44 -241 0
-44 240 0
-44 -239 0
-56 241 0
-56 -240 0
-56 -239 0
-68 -241 0
-68 -240 0
-68 -239 0
-7 -238 0
-7 -237 0
-7 236 0
-17 238 0
-17 237 0
-17 -236 0
-27 -238 0
-27 237 0
-27 -236 0
-37 238 0
-37 -237 0
-37 -236 0
-47 -238 0
-47 -237 0
-47 -236 0
-7 -235 0
-7 234 0
-7 233 0
-19 235 0
-19 -234 0
-19 233 0
-31 -235 0
-31 -234 0
-31 233 0
-43 235 0
-43 234 0
-43 -233 0
-55 -235 0
-55 234 0
-55 -233 0
-67 235 0
-67 -234 0
-67 -233 0
-79 -235 0
-79 -234 0
-79 -233 0
-6 232 0
-6 231 0
-16 -232 0
-16 231 0
-26 232 0
-26 -231 0
-36 -232 0
-36 -231 0
-6 230 0
-6 229 0
-6 228 0
-18 -230 0
-18 229 0
-18 228 0
-30 230 0
-30 -229 0
-30 228 0
-42 -230 0
-42 -229 0
-42 228 0
-54 230 0
-54 229 0
-54 -228 0
-66 -230 0
-66 229 0
-66 -228 0
-78 230 0
-78 -229 0
-78 -228 0
-90 -230 0
-90 -229 0
-90 -228 0
-5 -227 0
-5 226 0
-15 227 0
-15 -226 0
-25 -227 0
-25 -226 0
-5 -225 0
-5 -224 0
-5 -223 0
-5 222 0
-17 225 0
-17 224 0
-17 223 0
-17 -222 0
-29 -225 0
-29 224 0
-29 223 0
-29 -222 0
-41 225 0
-41 -224 0
-41 223 0
-41 -222 0
-53 -225 0
-53 -224 0
-53 223 0
-53 -222 0
-65 225 0
-65 224 0
-65 -223 0
-65 -222 0
-77 -225 0
-77 224 0
-77 -223 0
-77 -222 0
-89 225 0
-89 -224 0
-89 -223 0
-89 -222 0
-101 -225 0
-101 -224 0
-101 -223 0
-101 -222 0
-4 221 0
-14 -221 0
-4 220 0
-4 -219 0
-4 -218 0
-4 217 0
-16 -220 0
-16 -219 0
-16 -218 0
-16 217 0
-28 220 0
-28 219 0
-28 218 0
-28 -217 0
-40 -220 0
-40 219 0
-40 218 0
-40 -217 0
-52 220 0
-52 -219 0
-52 218 0
-52 -217 0
-64 -220 0
-64 -219 0
-64 218 0
-64 -217 0
-76 220 0
-76 219 0
-76 -218 0
-76 -217 0
-88 -220 0
-88 219 0
-88 -218 0
-88 -217 0
-100 220 0
-100 -219 0
-100 -218 0
-100 -217 0
-112 -220 0
-112 -219 0
-112 -218 0
-112 -217 0
-3 -216 0
-3 -215 0
-3 214 0
-3 -213 0
-3 212 0
-15 215 0
-15 -214 0
-15 -213 0
-15 212 0
-27 -215 0
-27 -214 0
-27 -213 0
-27 212 0
-39 215 0
-39 214 0
-39 213 0
-39 -212 0
-51 -215 0
-51 214 0
-51 213 0
-51 -212 0
-63 215 0
-63 -214 0
-63 213 0
-63 -212 0
-75 -215 0
-75 -214 0
-75 213 0
-75 -212 0
-87 215 0
-87 214 0
-87 -213 0
-87 -212 0
-99 -215 0
-99 214 0
-99 -213 0
-99 -212 0
-111 215 0
-111 -214 0
-111 -213 0
-111 -212 0
-123 -215 0
-123 -214 0
-123 -213 0
-123 -212 0
123 112 101 90 79 68 57 46 35 24 13 0
-13 -211 0
-13 210 0
-13 -209 0
-13 208 0
-24 211 0
-24 -210 0
-24 -209 0
-24 208 0
-35 -211 0
-35 -210 0
-35 -209 0
-35 208 0
-46 211 0
-46 210 0
-46 209 0
-46 -208 0
-57 -211 0
-57 210 0
-57 209 0
-57 -208 0
-68 211 0
-68 -210 0
-68 209 0
-68 -208 0
-79 -211 0
-79 -210 0
-79 209 0
-79 -208 0
-90 211 0
-90 210 0
-90 -209 0
-90 -208 0
-101 -211 0
-101 210 0
-101 -209 0
-101 -208 0
-112 211 0
-112 -210 0
-112 -209 0
-112 -208 0
-123 -211 0
-123 -210 0
-123 -209 0
-123 -208 0
122 111 100 89 78 67 56 45 34 23 12 0
-12 -207 0
-12 206 0
-12 -205 0
-12 204 0
-23 207 0
-23 -206 0
-23 -205 0
-23 204 0
-34 -207 0
-34 -206 0
-34 -205 0
-34 204 0
-45 207 0
-45 206 0
-45 205 0
-45 -204 0
-56 -207 0
-56 206 0
-56 205 0
-56 -204 0
-67 207 0
-67 -206 0
-67 205 0
-67 -204 0
-78 -207 0
-78 -206 0
-78 205 0
-78 -204 0
-89 207 0
-89 206 0
-89 -205 0
-89 -204 0
-100 -207 0
-100 206 0
-100 -205 0
-100 -204 0
-111 207 0
-111 -206 0
-111 -205 0
-111 -204 0
-122 -207 0
-122 -206 0
-122 -205 0
-122 -204 0
121 110 99 88 77 66 55 44 33 22 11 0
-11 -203 0
-11 202 0
-11 -201 0
-11 200 0
-22 203 0
-22 -202 0
-22 -201 0
-22 200 0
-33 -203 0
-33 -202 0
-33 -201 0
-33 200 0
-44 203 0
-44 202 0
-44 201 0
-44 -200 0
-55 -203 0
-55 202 0
-55 201 0
-55 -200 0
-66 203 0
-66 -202 0
-66 201 0
-66 -200 0
-77 -203 0
-77 -202 0
-77 201 0
-77 -200 0
-88 203 0
-88 202 0
-88 -201 0
-88 -200 0
-99 -203 0
-99 202 0
-99 -201 0
-99 -200 0
-110 203 0
-110 -202 0
-110 -201 0
-110 -200 0
-121 -203 0
-121 -202 0
-121 -201 0
-121 -200 0
120 109 98 87 76 65 54 43 32 21 10 0
-10 -199 0
-10 198 0
-10 -197 0
-10 196 0
-21 199 0
-21 -198 0
-21 -197 0
-21 196 0
-32 -199 0
-32 -198 0
-32 -197 0
-32 196 0
-43 199 0
-43 198 0
-43 197 0
-43 -196 0
-54 -199 0
-54 198 0
-54 197 0
-54 -196 0
-65 199 0
-65 -198 0
-65 197 0
-65 -196 0
-76 -199 0
-76 -198 0
-76 197 0
-76 -196 0
-87 199 0
-87 198 0
-87 -197 0
-87 -196 0
-98 -199 0
-98 198 0
-98 -197 0
-98 -196 0
-109 199 0
-109 -198 0
-109 -197 0
-109 -196 0
-120 -199 0
-120 -198 0
-120 -197 0
-120 -196 0
119 108 97 86 75 64 53 42 31 20 9 0
-9 -195 0
-9 194 0
-9 -193 0
-9 192 0
-20 195 0
-20 -194 0
-20 -193 0
-20 192 0
-31 -195 0
-31 -194 0
-31 -193 0
-31 192 0
-42 195 0
-42 194 0
-42 193 0
-42 -192 0
-53 -195 0
-53 194 0
-53 193 0
-53 -192 0
-64 195 0
-64 -194 0
-64 193 0
-64 -192 0
-75 -195 0
-75 -194 0
-75 193 0
-75 -192 0
-86 195 0
-86 194 0
-86 -193 0
-86 -192 0
-97 -195 0
-97 194 0
-97 -193 0
-97 -192 0
-108 195 0
-108 -194 0
-108 -193 0
-108 -192 0
-119 -195 0
-119 -194 0
-119 -193 0
-119 -192 0
118 107 96 85 74 63 52 41 30 19 8 0
-8 -191 0
-8 190 0
-8 -189 0
-8 188 0
-19 191 0
-19 -190 0
-19 -189 0
-19 188 0
-30 -191 0
-30 -190 0
-30 -189 0
-30 188 0
-41 191 0
-41 190 0
-41 189 0
-41 -188 0
-52 -191 0
-52 190 0
-52 189 0
-52 -188 0
-63 191 0
-63 -190 0
-63 189 0
-63 -188 0
-74 -191 0
-74 -190 0
-74 189 0
-74 -188 0
-85 191 0
-85 190 0
-85 -189 0
-85 -188 0
-96 -191 0
-96 190 0
-96 -189 0
-96 -188 0
-107 191 0
-107 -190 0
-107 -189 0
-107 -188 0
-118 -191 0
-118 -190 0
-118 -189 0
-118 -188 0
117 106 95 84 73 62 51 40 29 18 7 0
-7 -187 0
-7 186 0
-7 -185 0
-7 184 0
-18 187 0
-18 -186 0
-18 -185 0
-18 184 0
-29 -187 0
-29 -186 0
-29 -185 0
-29 184 0
-40 187 0
-40 186 0
-40 185 0
-40 -184 0
-51 -187 0
-51 186 0
-51 185 0
-51 -184 0
-62 187 0
-62 -186 0
-62 185 0
-62 -184 0
-73 -187 0
-73 -186 0
-73 185 0
-73 -184 0
-84 187 0
-84 186 0
-84 -185 0
-84 -184 0
-95 -187 0
-95 186 0
-95 -185 0
-95 -184 0
-106 187 0
-106 -186 0
-106 -185 0
-106 -184 0
-117 -187 0
-117 -186 0
-117 -185 0
-117 -184 0
116 105 94 83 72 61 50 39 28 17 6 0
-6 -183 0
-6 182 0
-6 -181 0
-6 180 0
-17 183 0
-17 -182 0
-17 -181 0
-17 180 0
-28 -183 0
-28 -182 0
-28 -181 0
-28 180 0
-39 183 0
-39 182 0
-39 181 0
-39 -180 0
-50 -183 0
-50 182 0
-50 181 0
-50 -180 0
-61 183 0
-61 -182 0
-61 181 0
-61 -180 0
-72 -183 0
-72 -182 0
-72 181 0
-72 -180 0
-83 183 0
-83 182 0
-83 -181 0
-83 -180 0
-94 -183 0
-94 182 0
-94 -181 0
-94 -180 0
-105 183 0
-105 -182 0
-105 -181 0
-105 -180 0
-116 -183 0
-116 -182 0
-116 -181 0
-116 -180 0
115 104 93 82 71 60 49 38 27 16 5 0
-5 -179 0
-5 178 0
-5 -177 0
-5 176 0
-16 179 0
-16 -178 0
-16 -177 0
-16 176 0
-27 -179 0
-27 -178 0
-27 -177 0
-27 176 0
-38 179 0
-38 178 0
-38 177 0
-38 -176 0
-49 -179 0
-49 178 0
-49 177 0
-49 -176 0
-60 179 0
-60 -178 0
-60 177 0
-60 -176 0
-71 -179 0
-71 -178 0
-71 177 0
-71 -176 0
-82 179 0
-82 178 0
-82 -177 0
-82 -176 0
-93 -179 0
-93 178 0
-93 -177 0
-93 -176 0
-104 179 0
-104 -178 0
-104 -177 0
-104 -176 0
-115 -179 0
-115 -178 0
-115 -177 0
-115 -176 0
114 103 92 81 70 59 48 37 26 15 4 0
-4 -175 0
-4 174 0
-4 -173 0
-4 172 0
-15 175 0
-15 -174 0
-15 -173 0
-15 172 0
-26 -175 0
-26 -174 0
-26 -173 0
-26 172 0
-37 175 0
-37 174 0
-37 173 0
-37 -172 0
-48 -175 0
-48 174 0
-48 173 0
-48 -172 0
-59 175 0
-59 -174 0
-59 173 0
-59 -172 0
-70 -175 0
-70 -174 0
-70 173 0
-70 -172 0
-81 175 0
-81 174 0
-81 -173 0
-81 -172 0
-92 -175 0
-92 174 0
-92 -173 0
-92 -172 0
-103 175 0
-103 -174 0
-103 -173 0
-103 -172 0
-114 -175 0
-114 -174 0
-114 -173 0
-114 -172 0
113 102 91 80 69 58 47 36 25 14 3 0
-3 -171 0
-3 170 0
-3 -169 0
-3 168 0
-14 171 0
-14 -170 0
-14 -169 0
-14 168 0
-25 -171 0
-25 -170 0
-25 -169 0
-25 168 0
-36 171 0
-36 170 0
-36 169 0
-36 -168 0
-47 -171 0
-47 170 0
-47 169 0
-47 -168 0
-58 171 0
-58 -170 0
-58 169 0
-58 -168 0
-69 -171 0
-69 -170 0
-69 169 0
-69 -168 0
-80 171 0
-80 170 0
-80 -169 0
-80 -168 0
-91 -171 0
-91 170 0
-91 -169 0
-91 -168 0
-102 171 0
-102 -170 0
-102 -169 0
-102 -168 0
-113 -171 0
-113 -170 0
-113 -169 0
-113 -168 0
-123 -167 0
-123 166 0
-123 -165 0
-123 164 0
-122 167 0
-122 -166 0
-122 -165 0
-122 164 0
-121 -167 0
-121 -166 0
-121 -165 0
-121 164 0
-120 167 0
-120 166 0
-120 165 0
-120 -164 0
-119 -167 0
-119 166 0
-119 165 0
-119 -164 0
-118 167 0
-118 -166 0
-118 165 0
-118 -164 0
-117 -167 0
-117 -166 0
-117 165 0
-117 -164 0
-116 167 0
-116 166 0
-116 -165 0
-116 -164 0
-115 -167 0
-115 166 0
-115 -165 0
-115 -164 0
-114 167 0
-114 -166 0
-114 -165 0
-114 -164 0
-113 -167 0
-113 -166 0
-113 -165 0
-113 -164 0
-112 -163 0
-112 162 0
-112 -161 0
-112 160 0
-111 163 0
-111 -162 0
-111 -161 0
-111 160 0
-110 -163 0
-110 -162 0
-110 -161 0
-110 160 0
-109 163 0
-109 162 0
-109 161 0
-109 -160 0
-108 -163 0
-108 162 0
-108 161 0
-108 -160 0
-107 163 0
-107 -162 0
-107 161 0
-107 -160 0
-106 -163 0
-106 -162 0
-106 161 0
-106 -160 0
-105 163 0
-105 162 0
-105 -161 0
-105 -160 0
-104 -163 0
-104 162 0
-104 -161 0
-104 -160 0
-103 163 0
-103 -162 0
-103 -161 0
-103 -160 0
-102 -163 0
-102 -162 0
-102 -161 0
-102 -160 0
-101 -159 0
-101 158 0
-101 -157 0
-101 156 0
-100 159 0
-100 -158 0
-100 -157 0
-100 156 0
-99 -159 0
-99 -158 0
-99 -157 0
-99 156 0
-98 159 0
-98 158 0
-98 157 0
-98 -156 0
-97 -159 0
-97 158 0
-97 157 0
-97 -156 0
-96 159 0
-96 -158 0
-96 157 0
-96 -156 0
-95 -159 0
-95 -158 0
-95 157 0
-95 -156 0
-94 159 0
-94 158 0
-94 -157 0
-94 -156 0
-93 -159 0
-93 158 0
-93 -157 0
-93 -156 0
-92 159 0
-92 -158 0
-92 -157 0
-92 -156 0
-91 -159 0
-91 -158 0
-91 -157 0
-91 -156 0
-90 -155 0
-90 154 0
-90 -153 0
-90 152 0
-89 155 0
-89 -154 0
-89 -153 0
-89 152 0
-88 -155 0
-88 -154 0
-88 -153 0
-88 152 0
-87 155 0
-87 154 0
-87 153 0
-87 -152 0
-86 -155 0
-86 154 0
-86 153 0
-86 -152 0
-85 155 0
-85 -154 0
-85 153 0
-85 -152 0
-84 -155 0
-84 -154 0
-84 153 0
-84 -152 0
-83 155 0
-83 154 0
-83 -153 0
-83 -152 0
-82 -155 0
-82 154 0
-82 -153 0
-82 -152 0
-81 155 0
-81 -154 0
-81 -153 0
-81 -152 0
-80 -155 0
-80 -154 0
-80 -153 0
-80 -152 0
-79 -151 0
-79 150 0
-79 -149 0
-79 148 0
-78 151 0
-78 -150 0
-78 -149 0
-78 148 0
-77 -151 0
-77 -150 0
-77 -149 0
-77 148 0
-76 151 0
-76 150 0
-76 149 0
-76 -148 0
-75 -151 0
-75 150 0
-75 149 0
-75 -148 0
-74 151 0
-74 -150 0
-74 149 0
-74 -148 0
-73 -151 0
-73 -150 0
-73 149 0
-73 -148 0
-72 151 0
-72 150 0
-72 -149 0
-72 -148 0
-71 -151 0
-71 150 0
-71 -149 0
-71 -148 0
-70 151 0
-70 -150 0
-70 -149 0
-70 -148 0
-69 -151 0
-69 -150 0
-69 -149 0
-69 -148 0
-68 -147 0
-68 146 0
-68 -145 0
-68 144 0
-67 147 0
-67 -146 0
-67 -145 0
-67 144 0
-66 -147 0
-66 -146 0
-66 -145 0
-66 144 0
-65 147 0
-65 146 0
-65 145 0
-65 -144 0
-64 -147 0
-64 146 0
-64 145 0
-64 -144 0
-63 147 0
-63 -146 0
-63 145 0
-63 -144 0
-62 -147 0
-62 -146 0
-62 145 0
-62 -144 0
-61 147 0
-61 146 0
-61 -145 0
-61 -144 0
-60 -147 0
-60 146 0
-60 -145 0
-60 -144 0
-59 147 0
-59 -146 0
-59 -145 0
-59 -144 0
-58 -147 0
-58 -146 0
-58 -145 0
-58 -144 0
-57 -143 0
-57 142 0
-57 -141 0
-57 140 0
-56 143 0
-56 -142 0
-56 -141 0
-56 140 0
-55 -143 0
-55 -142 0
-55 -141 0
-55 140 0
-54 143 0
-54 142 0
-54 141 0
-54 -140 0
-53 -143 0
-53 142 0
-53 141 0
-53 -140 0
-52 143 0
-52 -142 0
-52 141 0
-52 -140 0
-51 -143 0
-51 -142 0
-51 141 0
-51 -140 0
-50 143 0
-50 142 0
-50 -141 0
-50 -140 0
-49 -143 0
-49 142 0
-49 -141 0
-49 -140 0
-48 143 0
-48 -142 0
-48 -141 0
-48 -140 0
-47 -143 0
-47 -142 0
-47 -141 0
-47 -140 0
-46 -139 0
-46 138 0
-46 -137 0
-46 136 0
-45 139 0
-45 -138 0
-45 -137 0
-45 136 0
-44 -139 0
-44 -138 0
-44 -137 0
-44 136 0
-43 139 0
-43 138 0
-43 137 0
-43 -136 0
-42 -139 0
-42 138 0
-42 137 0
-42 -136 0
-41 139 0
-41 -138 0
-41 137 0
-41 -136 0
-40 -139 0
-40 -138 0
-40 137 0
-40 -136 0
-39 139 0
-39 138 0
-39 -137 0
-39 -136 0
-38 -139 0
-38 138 0
-38 -137 0
-38 -136 0
-37 139 0
-37 -138 0
-37 -137 0
-37 -136 0
-36 -139 0
-36 -138 0
-36 -137 0
-36 -136 0
-35 -135 0
-35 134 0
-35 -133 0
-35 132 0
-34 135 0
-34 -134 0
-34 -133 0
-34 132 0
-33 -135 0
-33 -134 0
-33 -133 0
-33 132 0
-32 135 0
-32 134 0
-32 133 0
-32 -132 0
-31 -135 0
-31 134 0
-31 133 0
-31 -132 0
-30 135 0
-30 -134 0
-30 133 0
-30 -132 0
-29 -135 0
-29 -134 0
-29 133 0
-29 -132 0
-28 135 0
-28 134 0
-28 -133 0
-28 -132 0
-27 -135 0
-27 134 0
-27 -133 0
-27 -132 0
-26 135 0
-26 -134 0
-26 -133 0
-26 -132 0
-25 -135 0
-25 -134 0
-25 -133 0
-25 -132 0
-24 -131 0
-24 130 0
-24 -129 0
-24 128 0
-23 131 0
-23 -130 0
-23 -129 0
-23 128 0
-22 -131 0
-22 -130 0
-22 -129 0
-22 128 0
-21 131 0
-21 130 0
-21 129 0
-21 -128 0
-20 -131 0
-20 130 0
-20 129 0
-20 -128 0
-19 131 0
-19 -130 0
-19 129 0
-19 -128 0
-18 -131 0
-18 -130 0
-18 129 0
-18 -128 0
-17 131 0
-17 130 0
-17 -129 0
-17 -128 0
-16 -131 0
-16 130 0
-16 -129 0
-16 -128 0
-15 131 0
-15 -130 0
-15 -129 0
-15 -128 0
-14 -131 0
-14 -130 0
-14 -129 0
-14 -128 0
-13 -127 0
-13 126 0
-13 -125 0
-13 124 0
-12 127 0
-12 -126 0
-12 -125 0
-12 124 0
-11 -127 0
-11 -126 0
-11 -125 0
-11 124 0
-10 127 0
-10 126 0
-10 125 0
-10 -124 0
-9 -127 0
-9 126 0
-9 125 0
-9 -124 0
-8 127 0
-8 -126 0
-8 125 0
-8 -124 0
-7 -127 0
-7 -126 0
-7 125 0
-7 -124 0
-6 127 0
-6 126 0
-6 -125 0
-6 -124 0
-5 -127 0
-5 126 0
-5 -125 0
-5 -124 0
-4 127 0
-4 -126 0
-4 -125 0
-4 -124 0
-3 -127 0
-3 -126 0
-3 -125 0
-3 -124 0
1 0
-2 0
